
n_res = 4;
rcap = [36, 32, 272, 265];
rtype = [1, 1, 2, 2];
n_tasks = 50;
modes =  [{1, 2, 3}, {4, 5, 6}, {7, 8, 9}, {10, 11, 12}, {13, 14, 15}, {16, 17, 18}, {19, 20, 21}, {22, 23, 24}, {25, 26, 27}, {28, 29, 30}, {31, 32, 33}, {34, 35, 36}, {37, 38, 39}, {40, 41, 42}, {43, 44, 45}, {46, 47, 48}, {49, 50, 51}, {52, 53, 54}, {55, 56, 57}, {58, 59, 60}, {61, 62, 63}, {64, 65, 66}, {67, 68, 69}, {70, 71, 72}, {73, 74, 75}, {76, 77, 78}, {79, 80, 81}, {82, 83, 84}, {85, 86, 87}, {88, 89, 90}, {91, 92, 93}, {94, 95, 96}, {97, 98, 99}, {100, 101, 102}, {103, 104, 105}, {106, 107, 108}, {109, 110, 111}, {112, 113, 114}, {115, 116, 117}, {118, 119, 120}, {121, 122, 123}, {124, 125, 126}, {127, 128, 129}, {130, 131, 132}, {133, 134, 135}, {136, 137, 138}, {139, 140, 141}, {142, 143, 144}, {145, 146, 147}, {148, 149, 150}];
succ =  [{48, 47, 42, 35, 33, 23, 8}, {46, 35, 27, 21, 16, 14}, {49, 46, 45, 44, 43, 40, 36, 35, 33, 32, 31, 29, 28}, {50, 46, 45, 42, 35, 32, 31, 28, 26, 23}, {45, 44, 33, 30, 28, 27, 22}, {49, 48, 47, 46, 45, 44, 41, 40, 39, 36, 32, 28}, {49, 47, 46, 45, 44, 40, 34, 33, 21}, {50, 46, 45, 44, 43, 34, 32, 31, 29, 28}, {50, 45, 42, 32, 31, 28, 23}, {48, 45, 42, 35, 34, 33, 31, 29, 28}, {46, 45, 42, 40, 31, 28, 24}, {45, 43, 42, 34, 33, 28, 25}, {50, 45, 44, 42, 40, 32, 31, 28}, {45, 44, 43, 33, 31, 29, 28}, {49, 46, 44, 42, 41, 40, 39, 28}, {48, 47, 43, 41, 40, 38, 34}, {48, 47, 43, 42, 41, 40, 34}, {49, 48, 46, 40, 39, 28}, {47, 46, 45, 40, 39, 32}, {48, 38, 25}, {43, 42, 41, 39, 38, 37}, {46, 43, 42, 38, 32}, {44, 43, 41, 40, 37}, {47, 44, 43, 38, 37}, {41, 40, 39, 37}, {44, 40, 38, 37}, {41, 40, 38}, {38, 37}, {41, 38}, {42, 37}, {39}, {37}, {39}, {37}, {37}, {42}, {}, {}, {}, {}, {}, {}, {}, {}, {}, {}, {}, {}, {}, {}];
n_opt = 150;
dur = [2, 9, 10, 1, 6, 7, 6, 6, 7, 2, 9, 10, 2, 4, 6, 4, 5, 10, 4, 7, 8, 3, 9, 10, 5, 6, 7, 2, 3, 10, 2, 4, 5, 1, 3, 4, 2, 3, 9, 1, 2, 4, 4, 6, 7, 2, 3, 8, 2, 4, 6, 1, 3, 4, 4, 6, 7, 2, 3, 5, 4, 5, 10, 4, 5, 8, 4, 5, 10, 3, 4, 5, 1, 2, 3, 3, 5, 6, 2, 7, 9, 1, 9, 10, 3, 4, 5, 1, 7, 8, 1, 5, 9, 2, 5, 6, 4, 6, 10, 2, 4, 5, 2, 9, 10, 3, 8, 10, 5, 8, 9, 3, 5, 7, 2, 3, 4, 5, 8, 9, 3, 4, 10, 2, 3, 9, 8, 9, 10, 2, 5, 8, 1, 4, 7, 1, 5, 7, 3, 5, 6, 1, 2, 8, 6, 7, 8, 3, 4, 6];
rreq = [|9, 8, 8, 9, 8, 5, 8, 6, 6, 3, 3, 1, 5, 5, 4, 5, 4, 3, 8, 8, 6, 7, 7, 7, 6, 6, 4, 5, 4, 3, 9, 7, 7, 8, 6, 6, 8, 5, 5, 5, 4, 2, 4, 2, 2, 6, 5, 1, 9, 8, 8, 5, 4, 3, 8, 8, 8, 5, 3, 2, 6, 4, 3, 7, 7, 6, 7, 7, 7, 3, 3, 3, 7, 7, 5, 5, 5, 5, 10, 8, 6, 9, 6, 5, 8, 7, 2, 3, 2, 2, 8, 7, 5, 3, 3, 2, 5, 4, 3, 10, 8, 7, 7, 5, 5, 6, 6, 5, 10, 9, 9, 3, 2, 2, 5, 4, 3, 3, 3, 3, 6, 4, 3, 8, 7, 4, 4, 3, 1, 3, 3, 3, 9, 7, 7, 2, 2, 2, 8, 5, 1, 9, 6, 6, 8, 7, 4, 4, 3, 3
 |9, 8, 8, 8, 7, 5, 1, 1, 1, 9, 7, 7, 6, 5, 3, 5, 4, 3, 6, 6, 5, 9, 6, 4, 6, 5, 5, 3, 1, 1, 3, 3, 2, 9, 5, 3, 9, 9, 9, 8, 6, 4, 7, 6, 5, 6, 3, 1, 4, 3, 3, 4, 4, 4, 5, 4, 4, 7, 6, 5, 9, 8, 8, 7, 7, 6, 3, 2, 1, 8, 6, 4, 10, 4, 4, 6, 5, 5, 9, 7, 3, 6, 5, 5, 8, 7, 5, 5, 4, 3, 9, 8, 8, 5, 4, 3, 8, 8, 7, 5, 4, 4, 3, 3, 2, 3, 2, 2, 6, 5, 4, 6, 6, 1, 4, 3, 3, 1, 1, 1, 8, 6, 6, 7, 4, 4, 2, 2, 2, 4, 4, 4, 9, 7, 5, 7, 7, 7, 6, 5, 5, 7, 6, 5, 8, 8, 8, 2, 2, 2
 |5, 4, 4, 5, 4, 2, 7, 5, 5, 5, 4, 4, 9, 6, 6, 5, 3, 1, 10, 8, 7, 5, 4, 4, 8, 7, 6, 9, 8, 6, 9, 9, 9, 1, 1, 1, 6, 5, 4, 7, 5, 5, 4, 2, 2, 7, 6, 4, 5, 4, 3, 6, 6, 4, 10, 6, 5, 8, 8, 8, 8, 6, 4, 4, 3, 3, 8, 8, 6, 5, 5, 5, 7, 7, 3, 4, 4, 2, 6, 5, 3, 8, 7, 7, 5, 5, 3, 5, 4, 2, 9, 8, 7, 4, 3, 2, 5, 5, 5, 8, 8, 8, 6, 6, 4, 10, 7, 1, 4, 2, 2, 3, 3, 2, 6, 5, 5, 2, 2, 2, 7, 3, 3, 10, 9, 9, 4, 4, 4, 8, 7, 7, 10, 8, 8, 7, 6, 6, 8, 5, 3, 5, 4, 1, 7, 7, 7, 8, 8, 8
 |4, 4, 3, 7, 6, 3, 6, 7, 6, 9, 8, 7, 5, 4, 4, 4, 2, 1, 4, 2, 2, 6, 3, 2, 8, 6, 4, 8, 8, 8, 8, 6, 3, 6, 6, 2, 9, 7, 7, 6, 5, 4, 5, 5, 4, 4, 4, 2, 5, 3, 3, 6, 6, 6, 1, 1, 1, 9, 9, 9, 3, 2, 2, 9, 7, 6, 7, 5, 3, 6, 3, 2, 7, 7, 7, 1, 1, 1, 6, 5, 5, 9, 8, 6, 3, 2, 2, 8, 7, 6, 5, 3, 3, 10, 10, 10, 4, 4, 4, 8, 5, 3, 8, 6, 6, 8, 7, 4, 3, 3, 2, 8, 8, 6, 7, 7, 7, 8, 4, 2, 6, 6, 5, 4, 2, 1, 6, 4, 3, 10, 7, 6, 5, 4, 2, 5, 4, 3, 9, 7, 7, 6, 4, 3, 8, 8, 8, 8, 8, 7|];